Route #1: 8 3 11 22 9 25
Route #2: 1
Route #3: 26
Route #4: 16 19
Route #5: 20 31 7
Route #6: 17 21
Route #7: 6 2 23
Route #8: 5
Route #9: 4 18 12
Route #10: 24 13
Route #11: 14 29 30
Route #12: 28
Route #13: 10 15 27

Cost: 2088.778765738108
